(set-logic QF_SLIA)
(declare-fun var0 () String)
(assert (str.in_re var0 (re.++ ((_ re.loop 13 576) (re.++ (re.union (str.to_re "i]O") (re.union (str.to_re "V>#") (re.union (str.to_re "PLP") (str.to_re "'")))) (re.++ (re.union (str.to_re "jZ") (re.union (str.to_re "(") (re.union (str.to_re "/Q") (str.to_re ":q/")))) (re.++ (re.union (str.to_re "pJT") (re.union (str.to_re "5'") (re.union (str.to_re "*P*") (str.to_re "&")))) (re.union (str.to_re "[s") (re.union (str.to_re "E/") (re.union (str.to_re "<") (str.to_re "u")))))))) (re.++ ((_ re.loop 4 866) (re.++ (re.union (str.to_re "!d") (re.union (str.to_re "u@)") (re.union (str.to_re "I") (str.to_re "L@")))) (re.++ (re.union (str.to_re "`") (re.union (str.to_re "^%s") (re.union (str.to_re "(") (str.to_re "U")))) (re.++ (re.union (str.to_re "j") (re.union (str.to_re "`t") (re.union (str.to_re ")y^") (str.to_re "YKP")))) (re.union (str.to_re "J") (re.union (str.to_re "jY]") (re.union (str.to_re "`sP") (str.to_re "[#z")))))))) (re.++ ((_ re.loop 3 311) (re.++ (re.union (str.to_re "t:@") (re.union (str.to_re "6&h") (re.union (str.to_re "p") (str.to_re "?/u")))) (re.++ (re.union (str.to_re "S<") (re.union (str.to_re "Y:") (re.union (str.to_re "%") (str.to_re "%")))) (re.++ (re.union (str.to_re ">0") (re.union (str.to_re "8") (re.union (str.to_re "@") (str.to_re "_'")))) (re.union (str.to_re "P+") (re.union (str.to_re "*") (re.union (str.to_re "VtI") (str.to_re "-*")))))))) ((_ re.loop 8 543) (re.++ (re.union (str.to_re "PN=") (re.union (str.to_re "4o?") (re.union (str.to_re ",J") (str.to_re "1)\\")))) (re.++ (re.union (str.to_re "2<") (re.union (str.to_re "C") (re.union (str.to_re "><") (str.to_re "I")))) (re.++ (re.union (str.to_re "9N") (re.union (str.to_re "qjC") (re.union (str.to_re "qP7") (str.to_re "r")))) (re.union (str.to_re ".?") (re.union (str.to_re "Zo{") (re.union (str.to_re "PNR") (str.to_re "x~e")))))))))))))
(assert (not (str.in_re var0 (re.++ ((_ re.loop 1 487) (re.++ (re.union (str.to_re "lJ+") (re.union (str.to_re "*e") (re.union (str.to_re "t]:") (str.to_re "{")))) (re.++ (re.union (str.to_re "BX") (re.union (str.to_re "vr") (re.union (str.to_re "}d") (str.to_re "{Or")))) (re.++ (re.union (str.to_re "v") (re.union (str.to_re "l:r") (re.union (str.to_re "z") (str.to_re "N")))) (re.union (str.to_re "[") (re.union (str.to_re ":") (re.union (str.to_re "A3,") (str.to_re "9c")))))))) (re.++ ((_ re.loop 2 743) (re.++ (re.union (str.to_re "o") (re.union (str.to_re "?#") (re.union (str.to_re "i") (str.to_re "=y")))) (re.++ (re.union (str.to_re "7") (re.union (str.to_re "XZh") (re.union (str.to_re "r") (str.to_re "Y")))) (re.++ (re.union (str.to_re "b2") (re.union (str.to_re "91") (re.union (str.to_re "S;^") (str.to_re "s")))) (re.union (str.to_re "pd") (re.union (str.to_re "P") (re.union (str.to_re "B_") (str.to_re "v||")))))))) (re.++ ((_ re.loop 16 393) (re.++ (re.union (str.to_re "'jv") (re.union (str.to_re "%yv") (re.union (str.to_re "\\") (str.to_re "F&R")))) (re.++ (re.union (str.to_re "-!|") (re.union (str.to_re "f") (re.union (str.to_re "bR") (str.to_re "PWt")))) (re.++ (re.union (str.to_re "F:") (re.union (str.to_re "T") (re.union (str.to_re "JA") (str.to_re "*")))) (re.union (str.to_re "Q") (re.union (str.to_re "wV") (re.union (str.to_re "3S") (str.to_re "Iwu")))))))) ((_ re.loop 6 654) (re.++ (re.union (str.to_re "GK") (re.union (str.to_re "db") (re.union (str.to_re "[>i") (str.to_re "wQt")))) (re.++ (re.union (str.to_re "[^") (re.union (str.to_re "|,$") (re.union (str.to_re "1d") (str.to_re "MCh")))) (re.++ (re.union (str.to_re "S") (re.union (str.to_re "z") (re.union (str.to_re "S") (str.to_re "`$")))) (re.union (str.to_re "Z") (re.union (str.to_re "Gz") (re.union (str.to_re "S+") (str.to_re "R3"))))))))))))))
(assert (not (str.in_re var0 (re.++ (re.* re.allchar) (re.++ (re.union (str.to_re "<") (re.union (str.to_re ">") (re.union (str.to_re "'") (re.union (str.to_re "\u0022") (str.to_re "&"))))) (re.* re.allchar))))))
(assert (<= 50 (str.len var0)))
(check-sat)
(get-model)
